NAME : Instance 5
COMMENT : Comment 5
TYPE : TSP
DIMENSION: 30
EDGE_WEIGHT_TYPE : EUC_2D
NODE_COORD_SECTION
  1 1710 912
  2 234 330
  3 695 1308
  4 1454 56
  5 1422 1549
  6 69 686
  7 750 810
  8 954 1188
  9 832 1065
  10 1082 112
  11 105 1432
  12 1368 1002
  13 1659 1665
  14 1128 993
  15 1568 491
  16 104 1021
  17 874 346
  18 1707 1233
  19 946 1164
  20 720 1180
  21 498 1993
  22 183 1313
  23 1408 224
  24 1165 1166
  25 737 368
  26 1513 956
  27 107 986
  28 912 1120
  29 1360 665
  30 1763 218
EOF
